InboundTrucks  = 12;
OutboundTrucks = 8;
InboundDoors   = 2;
OutboundDoors  = 1;
ReleaseTime    = [30,19,29,26,10,23,14,33,29,1,24,15];
UnloadTime     = [24,15,15,9,12,7,8,24,20,22,30,23];
LoadTime       = [6,15,17,12,14,20,13,9];
TransferTime   = [| 1,2,2,4,5,7,2,10 | 1,2,4,5,9,8,1,5 | 7,9,3,5,9,7,3,9 | 10,2,4,10,5,4,10,10 | 3,7,7,4,10,3,2,6 | 10,2,10,2,9,6,2,8 | 2,8,9,9,3,5,2,1 | 9,1,6,6,5,7,8,6 | 9,4,5,2,2,10,3,7 | 7,2,3,6,7,10,9,4 | 7,6,7,6,3,1,7,9 | 6,8,1,9,5,5,1,10 |];
